
Gurobi 10.0.1 (linux64) logging started Sun Nov 26 16:57:23 2023

Set parameter LogFile to value "ArtificialInstance/ExperimentV2/S3T5K3/AdRo/gurobi91.txt"
Gurobi Optimizer version 10.0.1 build v10.0.1rc0 (linux64)

CPU model: AMD EPYC 7H12 64-Core Processor, instruction set [SSE2|AVX|AVX2]
Thread count: 128 physical cores, 128 logical processors, using up to 32 threads

Academic license 656792 - for non-commercial use only - registered to b.___@student.vu.nl
Optimize a model with 21723 rows, 20185 columns and 78635 nonzeros
Model fingerprint: 0x3de65fd3
Variable types: 1 continuous, 20184 integer (20184 binary)
Coefficient statistics:
  Matrix range     [1e+00, 4e+01]
  Objective range  [1e+00, 2e+01]
  Bounds range     [1e+00, 1e+00]
  RHS range        [1e+00, 1e+00]
Presolve removed 8534 rows and 8334 columns
Presolve time: 0.65s
Presolved: 13189 rows, 11851 columns, 47151 nonzeros
Variable types: 1 continuous, 11850 integer (11850 binary)

Root relaxation: objective 8.315575e+01, 8304 iterations, 0.54 seconds (0.32 work units)

    Nodes    |    Current Node    |     Objective Bounds      |     Work
 Expl Unexpl |  Obj  Depth IntInf | Incumbent    BestBd   Gap | It/Node Time

     0     0   83.15575    0  145          -   83.15575      -     -    1s
H    0     0                     121.4804281   83.15575  31.5%     -    1s
H    0     0                     100.0001802   83.15575  16.8%     -    1s
H    0     0                      86.5326740   83.15575  3.90%     -    1s
H    0     0                      85.8001158   83.15575  3.08%     -    1s
     0     0   83.66099    0  377   85.80012   83.66099  2.49%     -    1s
     0     0   83.66099    0  125   85.80012   83.66099  2.49%     -    2s
H    0     0                      85.1444709   83.66099  1.74%     -    2s
     0     0   85.14447    0  149   85.14447   85.14447  0.00%     -    2s

Cutting planes:
  Gomory: 5
  MIR: 1
  Zero half: 1

Explored 1 nodes (18088 simplex iterations) in 2.30 seconds (1.38 work units)
Thread count was 32 (of 128 available processors)

Solution count 5: 85.1445 85.8001 86.5327 ... 121.48

Optimal solution found (tolerance 1.00e-04)
Best objective 8.514447087636e+01, best bound 8.514447087636e+01, gap 0.0000%
